p edge 50 614 15
v 3 5 31 41
v 4 11 15 29 47
v 2 12 44
v 4 7 8 16 32
v 1 25
v 5 17 35 36 43 45
v 3 18 23 30
v 3 9 19 37
v 5 4 14 27 33 39
v 3 13 42 49
v 1 34
v 5 1 10 26 38 40
v 4 20 21 22 24
v 3 2 3 6
v 4 28 46 48 50
e 1 2
e 1 5
e 1 7
e 1 8
e 1 9
e 1 10
e 1 11
e 1 13
e 1 18
e 1 19
e 1 20
e 1 21
e 1 22
e 1 23
e 1 27
e 1 28
e 1 29
e 1 38
e 1 41
e 1 45
e 1 46
e 2 3
e 2 5
e 2 6
e 2 7
e 2 9
e 2 10
e 2 11
e 2 12
e 2 14
e 2 15
e 2 17
e 2 20
e 2 23
e 2 26
e 2 28
e 2 31
e 2 34
e 2 36
e 2 38
e 2 41
e 2 42
e 2 44
e 2 45
e 2 46
e 2 47
e 2 49
e 2 50
e 3 4
e 3 8
e 3 9
e 3 10
e 3 11
e 3 12
e 3 13
e 3 16
e 3 23
e 3 24
e 3 25
e 3 27
e 3 29
e 3 31
e 3 32
e 3 36
e 3 37
e 3 39
e 3 41
e 3 42
e 3 43
e 3 46
e 3 47
e 3 48
e 3 50
e 4 5
e 4 7
e 4 9
e 4 11
e 4 20
e 4 23
e 4 24
e 4 25
e 4 29
e 4 32
e 4 33
e 4 35
e 4 41
e 4 43
e 4 45
e 4 50
e 5 6
e 5 8
e 5 11
e 5 15
e 5 18
e 5 19
e 5 22
e 5 23
e 5 25
e 5 28
e 5 29
e 5 36
e 5 38
e 5 40
e 5 41
e 5 42
e 5 43
e 5 45
e 5 46
e 5 49
e 5 50
e 6 7
e 6 10
e 6 11
e 6 12
e 6 13
e 6 15
e 6 16
e 6 19
e 6 20
e 6 22
e 6 23
e 6 24
e 6 27
e 6 29
e 6 34
e 6 35
e 6 36
e 6 38
e 6 39
e 6 40
e 6 42
e 6 46
e 6 47
e 6 48
e 6 49
e 6 50
e 7 8
e 7 9
e 7 10
e 7 16
e 7 17
e 7 18
e 7 20
e 7 23
e 7 24
e 7 27
e 7 28
e 7 29
e 7 32
e 7 36
e 7 37
e 7 40
e 7 41
e 7 42
e 7 48
e 7 49
e 7 50
e 8 9
e 8 10
e 8 12
e 8 18
e 8 19
e 8 20
e 8 21
e 8 22
e 8 24
e 8 27
e 8 29
e 8 38
e 8 40
e 8 43
e 8 44
e 8 49
e 8 50
e 9 10
e 9 11
e 9 12
e 9 18
e 9 21
e 9 25
e 9 26
e 9 27
e 9 28
e 9 32
e 9 33
e 9 34
e 9 35
e 9 40
e 9 41
e 9 42
e 9 45
e 9 46
e 9 47
e 9 50
e 10 13
e 10 14
e 10 17
e 10 20
e 10 21
e 10 22
e 10 23
e 10 25
e 10 26
e 10 27
e 10 29
e 10 31
e 10 32
e 10 33
e 10 35
e 10 36
e 10 37
e 10 38
e 10 40
e 10 42
e 10 43
e 10 44
e 10 45
e 10 47
e 10 48
e 10 49
e 11 14
e 11 15
e 11 16
e 11 17
e 11 19
e 11 25
e 11 26
e 11 27
e 11 35
e 11 36
e 11 42
e 11 44
e 11 45
e 11 46
e 11 49
e 11 50
e 12 15
e 12 17
e 12 18
e 12 19
e 12 20
e 12 21
e 12 23
e 12 26
e 12 28
e 12 29
e 12 30
e 12 32
e 12 33
e 12 34
e 12 36
e 12 38
e 12 42
e 12 44
e 12 45
e 13 14
e 13 16
e 13 17
e 13 20
e 13 22
e 13 25
e 13 28
e 13 29
e 13 31
e 13 35
e 13 36
e 13 37
e 13 40
e 13 42
e 13 44
e 13 45
e 13 46
e 13 47
e 13 48
e 13 49
e 14 15
e 14 18
e 14 19
e 14 20
e 14 21
e 14 22
e 14 23
e 14 28
e 14 31
e 14 33
e 14 36
e 14 38
e 14 39
e 14 44
e 14 46
e 14 47
e 14 49
e 14 50
e 15 17
e 15 19
e 15 20
e 15 28
e 15 34
e 15 39
e 15 40
e 15 45
e 15 46
e 16 17
e 16 20
e 16 21
e 16 25
e 16 26
e 16 27
e 16 30
e 16 31
e 16 34
e 16 37
e 16 38
e 16 39
e 16 40
e 16 41
e 16 49
e 17 18
e 17 19
e 17 20
e 17 21
e 17 23
e 17 25
e 17 26
e 17 28
e 17 29
e 17 31
e 17 32
e 17 33
e 17 34
e 17 36
e 17 37
e 17 40
e 17 44
e 17 45
e 17 46
e 17 48
e 17 49
e 17 50
e 18 21
e 18 22
e 18 23
e 18 26
e 18 32
e 18 34
e 18 35
e 18 36
e 18 39
e 18 40
e 18 42
e 18 43
e 18 45
e 18 46
e 18 50
e 19 21
e 19 27
e 19 29
e 19 31
e 19 33
e 19 36
e 19 41
e 19 42
e 19 43
e 19 44
e 19 47
e 19 48
e 19 49
e 19 50
e 20 21
e 20 22
e 20 23
e 20 24
e 20 26
e 20 27
e 20 29
e 20 30
e 20 32
e 20 33
e 20 34
e 20 40
e 20 41
e 20 44
e 20 45
e 20 46
e 20 48
e 21 26
e 21 27
e 21 28
e 21 29
e 21 31
e 21 32
e 21 34
e 21 36
e 21 38
e 21 40
e 21 43
e 21 44
e 21 45
e 21 46
e 21 47
e 21 49
e 21 50
e 22 24
e 22 27
e 22 30
e 22 31
e 22 33
e 22 34
e 22 35
e 22 36
e 22 37
e 22 38
e 22 39
e 22 40
e 22 46
e 22 49
e 23 25
e 23 27
e 23 29
e 23 31
e 23 36
e 23 39
e 23 41
e 23 42
e 23 43
e 23 45
e 23 47
e 23 49
e 23 50
e 24 26
e 24 28
e 24 30
e 24 34
e 24 35
e 24 36
e 24 37
e 24 38
e 24 39
e 24 43
e 24 44
e 24 46
e 24 48
e 24 50
e 25 26
e 25 27
e 25 28
e 25 29
e 25 30
e 25 33
e 25 36
e 25 37
e 25 38
e 25 39
e 25 43
e 25 46
e 25 47
e 25 49
e 25 50
e 26 32
e 26 33
e 26 34
e 26 35
e 26 36
e 26 38
e 26 39
e 26 41
e 26 42
e 26 44
e 26 45
e 26 46
e 26 47
e 26 50
e 27 29
e 27 30
e 27 34
e 27 37
e 27 39
e 27 41
e 27 44
e 27 46
e 27 47
e 27 48
e 27 49
e 28 29
e 28 30
e 28 31
e 28 32
e 28 35
e 28 39
e 28 41
e 28 43
e 28 46
e 28 48
e 28 49
e 28 50
e 29 30
e 29 31
e 29 32
e 29 34
e 29 36
e 29 37
e 29 38
e 29 39
e 29 40
e 29 41
e 29 42
e 29 43
e 29 44
e 29 47
e 30 36
e 30 37
e 30 39
e 30 45
e 30 47
e 30 50
e 31 32
e 31 33
e 31 34
e 31 37
e 31 38
e 31 42
e 31 43
e 31 47
e 31 48
e 31 50
e 32 33
e 32 35
e 32 38
e 32 39
e 32 44
e 32 46
e 33 34
e 33 35
e 33 37
e 33 39
e 33 41
e 33 43
e 33 44
e 33 45
e 33 47
e 33 48
e 33 50
e 34 36
e 34 43
e 34 45
e 34 48
e 34 50
e 35 37
e 35 39
e 35 40
e 35 41
e 35 42
e 35 48
e 35 49
e 35 50
e 36 38
e 36 42
e 36 46
e 36 48
e 36 49
e 36 50
e 37 41
e 37 42
e 37 43
e 37 44
e 37 47
e 37 49
e 37 50
e 38 40
e 38 44
e 38 46
e 38 47
e 38 48
e 38 49
e 38 50
e 39 40
e 39 45
e 39 46
e 39 48
e 39 49
e 40 42
e 40 44
e 40 45
e 40 46
e 40 48
e 40 49
e 41 42
e 41 43
e 41 44
e 41 45
e 41 46
e 41 47
e 41 48
e 41 49
e 42 44
e 42 45
e 42 50
e 43 44
e 43 46
e 43 49
e 43 50
e 44 48
e 44 49
e 45 46
e 45 47
e 45 48
e 45 49
e 45 50
e 46 49
e 47 48
e 47 49
e 47 50
e 48 49
e 48 50
